objective value:                     1.45524230721943
x(0,2,0)                                            1 	(obj:0)
x(1,4,0)                                            1 	(obj:0)
x(2,3,0)                                            1 	(obj:0)
x(3,1,0)                                            1 	(obj:0)
x(4,10,0)                                           1 	(obj:0)
x(10,0,0)                                           1 	(obj:0)
xc(0,9)                                             1 	(obj:0)
xc(1,3)                                             1 	(obj:0)
xc(2,0)                                             1 	(obj:0)
xc(4,1)                                             1 	(obj:0)
u(1,0)                              0.586874995778992 	(obj:0)
u(2,0)                             0.0364307505865333 	(obj:0)
u(3,0)                              0.394723881619002 	(obj:0)
u(4,0)                              0.811698475833631 	(obj:0)
u(7,0)                               1.45524230721943 	(obj:0)
u(10,0)                              1.45524230721943 	(obj:0)
u(11,0)                             0.366760949601649 	(obj:0)
u(12,0)                            0.0359054852290299 	(obj:0)
u(13,0)                             0.259547182725201 	(obj:0)
u(14,0)                               0.5682126665138 	(obj:0)
u(15,0)                             0.158546288988781 	(obj:0)
u(16,0)                             0.352531218822359 	(obj:0)
u(17,0)                             0.499781385660099 	(obj:0)
u(18,0)                             0.477288887736879 	(obj:0)
u(19,0)                              0.27761432476366 	(obj:0)
f(0,9,0)                                            1 	(obj:0)
f(0,9,1)                                            1 	(obj:0)
f(0,9,2)                                            1 	(obj:0)
f(0,9,3)                                            1 	(obj:0)
f(0,9,4)                                            1 	(obj:0)
f(1,4,1)                                            1 	(obj:0)
f(1,4,3)                                            1 	(obj:0)
f(2,0,2)                                            1 	(obj:0)
f(3,1,3)                                            1 	(obj:0)
f(4,10,1)                                           1 	(obj:0)
f(4,10,3)                                           1 	(obj:0)
f(4,10,4)                                           1 	(obj:0)
f(10,0,1)                                           1 	(obj:0)
f(10,0,3)                                           1 	(obj:0)
f(10,0,4)                                           1 	(obj:0)
z_r(0,)                              1.45524230721943 	(obj:0)
z                                    1.45524230721943 	(obj:1)
